cplex_aggregate.lp
\ENCODING=ISO-8859-1
\Problem name: 

Minimize
 obj1: x3
Subject To
 R3: 5 x3 >= 9
Bounds
 0 <= x3 <= 9
End
