cplex_aggregate
<?xml version = "1.0" encoding="UTF-8" standalone="yes"?>
<CPLEXSolution version="1.2">
 <header
   problemName=""
   objectiveValue="1.8"
   solutionTypeValue="1"
   solutionTypeString="basic"
   solutionStatusValue="1"
   solutionStatusString="optimal"
   solutionMethodString="dual"
   primalFeasible="1"
   dualFeasible="1"
   simplexIterations="0"
   writeLevel="1"/>
 <quality
   epRHS="9.9999999999999995e-07"
   epOpt="9.9999999999999995e-07"
   maxPrimalInfeas="0"
   maxDualInfeas="0"
   maxPrimalResidual="0"
   maxDualResidual="0"
   maxX="1.8"
   maxPi="0.20000000000000001"
   maxSlack="0"
   maxRedCost="0"
   kappa="1.0000000000000002"/>
 <linearConstraints>
  <constraint name="R3" index="0" status="LL" slack="0" dual="0.20000000000000001"/>
 </linearConstraints>
 <variables>
  <variable name="x3" index="0" status="BS" value="1.8" reducedCost="0"/>
 </variables>
 <objectiveValues>
  <objective index="0" name="" value="1.8"/>
 </objectiveValues>
</CPLEXSolution>
